p idrup
i -1 0
i -10 -15 0
i -9 -2 0
i -5 -14 0
i -13 2 0
i 7 -12 0
i 11 -7 0
i 10 6 0
i -11 16 0
i -4 13 0
i -14 3 3 0
i 14 17 0
i 15 -3 0
i 4 8 0
i -6 12 0
i -11 9 0
i -16 -8 5 0
q 0
l -14 0
s SATISFIABLE
m -1 -2 3 -4 5 6 7 8 9 -10 11 12 -13 -14 15 16 17 0
